bacp/01/params/inst-57-1-823094821.param
language Essence 1.3
$ generated by bacp-gen.pl with seed 823094821
$ edge probability 0.3458
$ course loads in range 2..6
letting n_courses be 62
letting n_periods be 30
letting load_per_period_lb be 7
letting load_per_period_ub be 42
letting courses_per_period_lb be 2
letting courses_per_period_ub be 8
letting course_load be function(
1 --> 2,
2 --> 6,
3 --> 3,
4 --> 6,
5 --> 5,
6 --> 2,
7 --> 5,
8 --> 5,
9 --> 3,
10 --> 4,
11 --> 5,
12 --> 3,
13 --> 6,
14 --> 2,
15 --> 3,
16 --> 4,
17 --> 5,
18 --> 2,
19 --> 6,
20 --> 3,
21 --> 5,
22 --> 6,
23 --> 3,
24 --> 5,
25 --> 3,
26 --> 3,
27 --> 4,
28 --> 4,
29 --> 5,
30 --> 4,
31 --> 4,
32 --> 6,
33 --> 5,
34 --> 5,
35 --> 5,
36 --> 3,
37 --> 2,
38 --> 2,
39 --> 3,
40 --> 2,
41 --> 2,
42 --> 5,
43 --> 2,
44 --> 2,
45 --> 3,
46 --> 4,
47 --> 3,
48 --> 5,
49 --> 4,
50 --> 3,
51 --> 3,
52 --> 3,
53 --> 3,
54 --> 4,
55 --> 2,
56 --> 2,
57 --> 3,
58 --> 5,
59 --> 3,
60 --> 4,
61 --> 4,
62 --> 6
)
letting prerequisite be relation (
(9,16),
(10,17),
(6,18),
(12,19),
(9,20),
(1,21),
(13,22),
(7,23),
(1,24),
(9,25),
(9,26),
(10,27),
(7,28),
(13,29),
(8,30),
(13,31),
(15,32),
(6,33),
(14,34),
(2,35),
(14,36),
(1,37),
(6,38),
(4,39),
(4,40),
(2,41),
(2,42),
(1,43),
(30,44),
(42,45),
(39,46),
(19,47),
(17,48),
(22,49),
(17,50),
(26,51),
(42,52),
(26,53),
(36,54),
(30,55),
(22,56),
(23,57),
(43,58),
(21,59),
(17,60),
(17,61),
(43,62),
(11,18),
(28,51),
(33,62),
(8,21),
(9,34),
(26,57),
(10,40),
(2,40),
(31,45),
(33,50),
(21,46),
(7,36),
(8,28),
(24,61),
(23,46),
(1,28),
(20,47),
(37,44),
(4,17),
(43,45),
(39,55),
(10,41),
(11,22),
(14,21),
(12,40),
(1,29),
(17,62),
(2,28),
(18,49),
(8,41),
(36,58),
(8,34),
(6,42),
(37,54),
(8,20),
(10,35),
(28,61),
(6,35),
(19,44),
(12,29),
(16,55),
(11,31),
(35,54),
(3,36),
(13,40),
(19,62),
(28,44),
(28,54),
(7,39),
(19,51),
(19,58),
(14,39),
(15,33),
(8,43),
(7,29),
(18,48),
(23,47),
(41,53),
(4,28),
(3,27),
(11,27),
(13,18),
(27,61),
(2,18),
(6,39),
(7,20),
(14,27),
(1,32),
(21,47),
(2,34),
(34,55),
(13,32),
(28,49),
(16,54),
(21,56),
(1,26),
(23,56),
(31,55),
(9,30),
(3,33),
(2,29),
(31,50),
(26,44),
(28,46),
(6,27),
(8,27),
(26,52),
(12,17),
(2,27),
(37,53),
(1,30),
(4,25),
(15,29),
(2,26),
(29,45),
(35,48),
(27,44),
(14,16),
(9,43),
(30,61),
(14,41),
(29,46),
(7,43),
(22,50),
(37,50),
(36,48),
(9,19),
(2,39),
(39,58),
(8,22),
(40,56),
(16,51),
(10,21),
(34,49),
(37,52),
(32,53),
(17,53),
(37,58),
(14,40),
(12,31),
(30,52),
(30,60),
(33,54),
(8,31),
(43,51),
(32,47),
(34,46),
(5,36),
(42,51),
(29,52),
(8,25),
(13,28),
(36,52),
(8,37),
(8,39),
(41,58),
(16,59),
(35,62),
(9,38),
(10,28),
(10,43),
(32,46),
(13,42),
(13,19),
(15,39),
(34,51),
(27,53),
(37,57),
(10,26),
(37,51),
(9,32),
(20,54),
(29,58),
(15,38),
(31,59),
(22,61),
(11,30),
(11,33),
(9,35),
(1,16),
(6,26),
(35,55),
(10,37),
(7,42),
(20,59),
(32,49),
(27,62),
(18,54),
(8,36),
(23,53),
(21,57),
(41,54),
(15,16),
(6,37),
(28,48),
(39,45),
(33,56),
(11,38),
(14,23),
(33,44),
(23,54),
(36,45),
(6,28),
(22,53),
(26,47),
(8,17),
(4,27),
(33,52),
(25,60),
(34,47),
(14,28),
(14,20),
(25,58),
(23,58),
(2,32),
(21,51),
(35,61),
(10,23),
(12,38),
(1,17),
(5,37),
(6,25),
(18,59),
(11,29),
(43,56),
(10,36),
(6,20),
(31,49),
(24,58),
(17,58),
(41,61),
(34,54),
(34,56),
(2,30),
(10,34),
(38,57),
(39,61),
(22,48),
(25,55),
(8,40),
(42,58),
(35,53),
(29,54),
(24,55),
(41,59),
(13,23),
(15,42),
(16,45),
(12,30),
(5,38),
(41,56),
(38,55),
(10,20),
(27,48),
(23,52),
(40,60),
(3,43),
(2,31),
(13,35),
(5,17),
(41,50),
(8,29),
(14,19),
(9,27),
(20,51),
(15,22),
(43,46),
(13,21),
(8,24),
(15,40),
(6,32),
(5,29),
(30,51),
(24,45),
(14,33),
(4,19),
(7,38),
(23,50),
(11,37),
(11,23),
(3,29),
(4,34),
(4,22),
(9,22),
(6,17),
(1,42),
(18,47),
(3,40),
(11,36),
(14,26),
(17,46),
(39,56),
(12,18),
(18,51),
(19,52),
(3,42),
(10,32),
(5,34),
(23,48),
(3,16),
(5,19),
(1,18)
)

