bacp/param_dec/inst-57-1-823094821.eprime-param
language ESSENCE' 1.0

letting n_courses be 62
letting n_periods be 30
letting prerequisite_RelationAsSet_Explicit_1 be
        [1, 1, 1, 1, 1, 1, 1, 1, 1, 1, 1, 1, 1, 2, 2, 2, 2, 2, 2, 2, 2, 2, 2, 2, 2, 2, 2, 3, 3, 3, 3, 3, 3, 3, 3, 4, 4,
         4, 4, 4, 4, 4, 4, 4, 5, 5, 5, 5, 5, 5, 5, 6, 6, 6, 6, 6, 6, 6, 6, 6, 6, 6, 6, 6, 6, 7, 7, 7, 7, 7, 7, 7, 7, 7,
         8, 8, 8, 8, 8, 8, 8, 8, 8, 8, 8, 8, 8, 8, 8, 8, 8, 8, 9, 9, 9, 9, 9, 9, 9, 9, 9, 9, 9, 9, 9, 10, 10, 10, 10,
         10, 10, 10, 10, 10, 10, 10, 10, 10, 10, 10, 11, 11, 11, 11, 11, 11, 11, 11, 11, 11, 11, 12, 12, 12, 12, 12, 12,
         12, 12, 13, 13, 13, 13, 13, 13, 13, 13, 13, 13, 13, 13, 14, 14, 14, 14, 14, 14, 14, 14, 14, 14, 14, 14, 14, 14,
         15, 15, 15, 15, 15, 15, 15, 15, 15, 16, 16, 16, 16, 16, 17, 17, 17, 17, 17, 17, 17, 17, 18, 18, 18, 18, 18, 18,
         19, 19, 19, 19, 19, 19, 20, 20, 20, 20, 21, 21, 21, 21, 21, 21, 22, 22, 22, 22, 22, 22, 23, 23, 23, 23, 23, 23,
         23, 23, 23, 23, 24, 24, 24, 24, 25, 25, 25, 26, 26, 26, 26, 26, 26, 27, 27, 27, 27, 27, 28, 28, 28, 28, 28, 28,
         28, 29, 29, 29, 29, 29, 30, 30, 30, 30, 30, 30, 31, 31, 31, 31, 31, 32, 32, 32, 32, 33, 33, 33, 33, 33, 33, 34,
         34, 34, 34, 34, 34, 34, 35, 35, 35, 35, 35, 35, 36, 36, 36, 36, 36, 37, 37, 37, 37, 37, 37, 37, 37, 38, 38, 39,
         39, 39, 39, 39, 39, 40, 40, 41, 41, 41, 41, 41, 41, 41, 42, 42, 42, 42, 43, 43, 43, 43, 43, 43;
             int(1..329)]
letting prerequisite_RelationAsSet_Explicit_2 be
        [16, 17, 18, 21, 24, 26, 28, 29, 30, 32, 37, 42, 43, 18, 26, 27, 28, 29, 30, 31, 32, 34, 35, 39, 40, 41, 42, 16,
         27, 29, 33, 36, 40, 42, 43, 17, 19, 22, 25, 27, 28, 34, 39, 40, 17, 19, 29, 34, 36, 37, 38, 17, 18, 20, 25, 26,
         27, 28, 32, 33, 35, 37, 38, 39, 42, 20, 23, 28, 29, 36, 38, 39, 42, 43, 17, 20, 21, 22, 24, 25, 27, 28, 29, 30,
         31, 34, 36, 37, 39, 40, 41, 43, 16, 19, 20, 22, 25, 26, 27, 30, 32, 34, 35, 38, 43, 17, 20, 21, 23, 26, 27, 28,
         32, 34, 35, 36, 37, 40, 41, 43, 18, 22, 23, 27, 29, 30, 31, 33, 36, 37, 38, 17, 18, 19, 29, 30, 31, 38, 40, 18,
         19, 21, 22, 23, 28, 29, 31, 32, 35, 40, 42, 16, 19, 20, 21, 23, 26, 27, 28, 33, 34, 36, 39, 40, 41, 16, 22, 29,
         32, 33, 38, 39, 40, 42, 45, 51, 54, 55, 59, 46, 48, 50, 53, 58, 60, 61, 62, 47, 48, 49, 51, 54, 59, 44, 47, 51,
         52, 58, 62, 47, 51, 54, 59, 46, 47, 51, 56, 57, 59, 48, 49, 50, 53, 56, 61, 46, 47, 48, 50, 52, 53, 54, 56, 57,
         58, 45, 55, 58, 61, 55, 58, 60, 44, 47, 51, 52, 53, 57, 44, 48, 53, 61, 62, 44, 46, 48, 49, 51, 54, 61, 45, 46,
         52, 54, 58, 44, 51, 52, 55, 60, 61, 45, 49, 50, 55, 59, 46, 47, 49, 53, 44, 50, 52, 54, 56, 62, 46, 47, 49, 51,
         54, 55, 56, 48, 53, 54, 55, 61, 62, 45, 48, 52, 54, 58, 44, 50, 51, 52, 53, 54, 57, 58, 55, 57, 45, 46, 55, 56,
         58, 61, 56, 60, 50, 53, 54, 56, 58, 59, 61, 45, 51, 52, 58, 45, 46, 51, 56, 58, 62;
             int(1..329)]
letting course_load_Function1D be
        [2, 6, 3, 6, 5, 2, 5, 5, 3, 4, 5, 3, 6, 2, 3, 4, 5, 2, 6, 3, 5, 6, 3, 5, 3, 3, 4, 4, 5, 4, 4, 6, 5, 5, 5, 3, 2,
         2, 3, 2, 2, 5, 2, 2, 3, 4, 3, 5, 4, 3, 3, 3, 3, 4, 2, 2, 3, 5, 3, 4, 4, 6;
             int(1..62)]
letting load_per_period_ub be 42
letting load_per_period_lb be 7
letting courses_per_period_ub be 8
letting courses_per_period_lb be 2
letting fin1 be 329
letting fin2 be 62
letting fin3 be 6
